
9 2 2 2 9 2 2 2 2 2 2 2 2 2 2 2 2 2 2 3 3 3 2 3 3 2 3 3 3 3 3 3 3 3 3 3 3 3 3 6 6 8 8 8 8 8 8 8 8 3 6 3 6 6 6 6 6 6 6 6 6 0 4 6 6 6 6 6 6 0 0 0 0 4 2 0 0 0 0 0 0 4 4 4 4 4 4 4 4 4 4 9 4 9 4 9 9 4 9 9 
